NAME : n80w40.004.557.tour
COMMENT : Length = 557
COMMENT : Found by LKH [Keld Helsgaun] Tue May  2 05:18:28 2017
TYPE : TOUR
DIMENSION : 81
TOUR_SECTION
1
79
9
6
21
25
55
41
62
49
73
30
22
65
77
42
75
7
27
78
60
23
52
26
61
33
72
46
11
45
44
34
17
37
10
63
57
35
40
80
47
19
3
32
51
38
64
59
71
31
56
16
48
29
15
14
2
43
68
70
53
4
36
66
50
28
74
13
24
20
76
18
67
5
12
39
8
54
58
81
69
-1
EOF
